NAME: generated_10_sym_1_60_UniformDistrib_noSparse.tsp
TYPE: TSP
COMMENT: Test case generated with custom generator!
DIMENSION: 10
EDGE_WEIGHT_TYPE: EXPLICIT
EDGE_WEIGHT_FORMAT: FULL_MATRIX
DISPLAY_DATA_TYPE: TWOD_DISPLAY
EDGE_WEIGHT_SECTION
0 38 59 12 57 5 46 13 30 20 
38 0 32 23 31 37 15 53 37 1 
59 32 0 13 32 40 28 39 52 41 
12 23 13 0 5 41 43 17 36 46 
57 31 32 5 0 14 9 15 15 60 
5 37 40 41 14 0 33 53 44 4 
46 15 28 43 9 33 0 41 4 35 
13 53 39 17 15 53 41 0 6 18 
30 37 52 36 15 44 4 6 0 51 
20 1 41 46 60 4 35 18 51 0 
